
#(C) 2024 by FIZ Karlsruhe - Leibniz Institute for Information Infrastructure.  All rights reserved.
data_117439-ICSD
_database_code_ICSD 117439
_audit_creation_date 2023-08-01
_chemical_name_common Thiourea
_chemical_formula_structural 'S C (N H2)2'
_chemical_formula_sum 'C1 H4 N2 S1'
_chemical_name_structure_type SC(NH2)2
_exptl_crystal_density_diffrn 1.44
_diffrn_ambient_temperature 110.
_citation_title

;
A neutron diffraction determination of the crystal structures of thiourea and
deuterated thiourea above and below the ferroelectric transition
;
loop_
_citation_id
_citation_journal_full
_citation_year
_citation_journal_volume
_citation_page_first
_citation_page_last
_citation_journal_id_ASTM
primary

;
Acta Crystallographica, Section A: Crystal Physics, Diffraction, Theoretical
and General Crystallography
; 1968 24 410 420 ACACBN
loop_
_citation_author_citation_id
_citation_author_name
primary 'Elcombe, Margaret M.'
primary 'Taylor,  J.C.'
_cell_length_a 7.516(7)
_cell_length_b 8.519(10)
_cell_length_c 5.494(5)
_cell_angle_alpha 90.
_cell_angle_beta 90.
_cell_angle_gamma 90.
_cell_volume 351.77
_cell_formula_units_Z 4
_space_group_name_H-M_alt 'P 21 m a'
_space_group_IT_number 26
loop_
_space_group_symop_id
_space_group_symop_operation_xyz
1 'x+1/2, y, -z'
2 'x+1/2, -y, -z'
3 'x, -y, z'
4 'x, y, z'
loop_
_atom_type_symbol
_atom_type_oxidation_number
S2- -2
C4+ 4
N3- -3
H1+ 1
S2- -2
C4+ 4
N3- -3
H1+ 1
loop_
_atom_site_label
_atom_site_type_symbol
_atom_site_symmetry_multiplicity
_atom_site_Wyckoff_symbol
_atom_site_fract_x
_atom_site_fract_y
_atom_site_fract_z
_atom_site_B_iso_or_equiv
_atom_site_occupancy
S1 S2- 2 a 0.0062(16) 0 0.3454(19) . 1.
C1 C4+ 2 a 0.0733(10) 0 0.0455(7) . 1.
N1 N3- 4 c 0.1 0.1337(3) -0.0756(4) . 1.
H1 H1+ 4 c 0.1365(12) 0.1305(10) -0.2506(13) . 1.
H2 H1+ 4 c 0.0772(18) 0.2378(8) 0.0052(14) . 1.
S2 S2- 2 b 0.0272(16) 0.5 0.1215(17) . 1.
C2 C4+ 2 b -0.0985(8) 0.5 0.3860(8) . 1.
N2 N3- 4 c -0.1475(5) 0.3656(3) 0.4912(6) . 1.
H3 H1+ 4 c -0.2169(13) 0.3698(9) 0.6506(14) . 1.
H4 H1+ 4 c -0.1028(16) 0.2614(10) 0.4271(13) . 1.
loop_
_atom_site_aniso_label
_atom_site_aniso_type_symbol
_atom_site_aniso_beta_11
_atom_site_aniso_beta_22
_atom_site_aniso_beta_33
_atom_site_aniso_beta_12
_atom_site_aniso_beta_13
_atom_site_aniso_beta_23
S1 S2- 0.0099(21) 0.0026(12) 0.0052(30) 0. -0.0020(19) 0.
C1 C4+ 0.0073(10) 0.0019(5) 0.0054(13) 0. 0.0006(8) 0.
N1 N3- 0.0113(4) 0.0036(4) 0.0094(8) 0.0001(5) 0.0033(7) 0.0005(4)
H1 H1+ 0.0242(25) 0.0070(110) 0.0151(26) -0.0003(11) 0.0094(17) 0.0014(11)
H2 H1+ 0.0183(17) 0.0050(9) 0.0198(20) 0.0014(13) 0.0034(18) -0.0007(12)
S2 S2- 0.0086(17) 0.0035(12) 0.0034(27) 0. -0.0014(18) 0.
C2 C4+ 0.0051(7) 0.0049(7) 0.0061(13) 0. 0.0009(9) 0.
N2 N3- 0.0084(4) 0.0040(4) 0.0117(8) -0.0009(5) 0.0037(5) 0.0003(5)
H3 H1+ 0.0174(14) 0.0085(10) 0.0189(25) -0.0009(11) 0.0118(20) 0.0015(13)
H4 H1+ 0.0133(13) 0.0066(12) 0.0217(23) -0.0005(11) 0.0040(14) 0.0021(12)
#End of TTdata_117439-ICSD