
#(C) 2024 by FIZ Karlsruhe - Leibniz Institute for Information Infrastructure.  All rights reserved.
data_117440-ICSD
_database_code_ICSD 117440
_audit_creation_date 2023-08-01
_chemical_name_common Deuterio-thiourea
_chemical_formula_structural 'S C (N D2)2'
_chemical_formula_sum 'C1 D4 N2 S1'
_chemical_name_structure_type SC(NH2)2
_exptl_crystal_density_diffrn 1.51
_diffrn_ambient_temperature 110.
_citation_title

;
A neutron diffraction determination of the crystal structures of thiourea and
deuterated thiourea above and below the ferroelectric transition
;
loop_
_citation_id
_citation_journal_full
_citation_year
_citation_journal_volume
_citation_page_first
_citation_page_last
_citation_journal_id_ASTM
primary

;
Acta Crystallographica, Section A: Crystal Physics, Diffraction, Theoretical
and General Crystallography
; 1968 24 410 420 ACACBN
loop_
_citation_author_citation_id
_citation_author_name
primary 'Elcombe, Margaret M.'
primary 'Taylor,  J.C.'
_cell_length_a 7.516(7)
_cell_length_b 8.519(10)
_cell_length_c 5.494(5)
_cell_angle_alpha 90.
_cell_angle_beta 90.
_cell_angle_gamma 90.
_cell_volume 351.77
_cell_formula_units_Z 4
_space_group_name_H-M_alt 'P 21 m a'
_space_group_IT_number 26
loop_
_space_group_symop_id
_space_group_symop_operation_xyz
1 'x+1/2, y, -z'
2 'x+1/2, -y, -z'
3 'x, -y, z'
4 'x, y, z'
loop_
_atom_type_symbol
_atom_type_oxidation_number
S2- -2
C4+ 4
N3- -3
D1+ 1
S2- -2
C4+ 4
N3- -3
D1+ 1
loop_
_atom_site_label
_atom_site_type_symbol
_atom_site_symmetry_multiplicity
_atom_site_Wyckoff_symbol
_atom_site_fract_x
_atom_site_fract_y
_atom_site_fract_z
_atom_site_B_iso_or_equiv
_atom_site_occupancy
S1 S2- 2 a 0.0113(17) 0 0.3412(21) . 1.
C1 C4+ 2 a 0.0744(9) 0 0.0427(8) . 1.
N1 N3- 4 c 0.1 0.1333(3) -0.0785(5) . 1.
D1 D1+ 4 c 0.1358(9) 0.1323(5) -0.2569(8) . 1.
D2 D1+ 4 c 0.0777(10) 0.2381(5) 0.0013(8) . 1.
S2 S2- 2 b 0.0328(14) 0.5 0.1217(20) . 1.
C2 C4+ 2 b -0.0956(9) 0.5 0.3852(10) . 1.
N2 N3- 4 c -0.1463(6) 0.3659(3) 0.4863(6) . 1.
D3 D1+ 4 c -0.2191(8) 0.3690(6) 0.6441(8) . 1.
D4 D1+ 4 c -0.1028(16) 0.2614(10) 0.4271(13) . 1.
loop_
_atom_site_aniso_label
_atom_site_aniso_type_symbol
_atom_site_aniso_beta_11
_atom_site_aniso_beta_22
_atom_site_aniso_beta_33
_atom_site_aniso_beta_12
_atom_site_aniso_beta_13
_atom_site_aniso_beta_23
S1 S2- 0.0070(21) 0.0075(15) 0.0133(34) 0. 0.0006(22) 0.
C1 C4+ 0.0070(10) 0.0066(6) 0.0111(15) 0. 0.0014(11) 0.
N1 N3- 0.0128(5) 0.0050(4) 0.0160(9) -0.0002(5) 0.0047(7) -0.0001(4)
D1 D1+ 0.0241(13) 0.0105(7) 0.0173(14) -0.0005(8) 0.0092(11) 0.0015(8)
D2 D1+ 0.0146(10) 0.0081(6) 0.0215(11) -0.0006(7) 0.0028(12) 0.0010(8)
S2 S2- 0.0069(19) 0.0064(14) 0.0123(32) 0. 0.0013(21) 0.
C2 C4+ 0.0062(8) 0.0054(7) 0.0168(15) 0. 0.0019(11) 0.
N2 N3- 0.0094(4) 0.0067(4) 0.0184(9) 0.0001(5) 0.0036(5) 0.0003(6)
D3 D1+ 0.0159(8) 0.0098(6) 0.0191(13) -0.0004(7) 0.0089(9) -0.0006(8)
D4 D1+ 0.0133(13) 0.0066(12) 0.0217(23) -0.0005(11) 0.0040(14) 0.0021(12)
#End of TTdata_117440-ICSD