
#(C) 2024 by FIZ Karlsruhe - Leibniz Institute for Information Infrastructure.  All rights reserved.
data_117438-ICSD
_database_code_ICSD 117438
_audit_creation_date 2023-08-01
_chemical_name_common Deuterio-thiourea
_chemical_formula_structural 'S C (N D2)2'
_chemical_formula_sum 'C1 D4 N2 S1'
_chemical_name_structure_type SC(NH2)2
_exptl_crystal_density_diffrn 1.48
_diffrn_ambient_temperature 293.
_citation_title

;
A neutron diffraction determination of the crystal structures of thiourea and
deuterated thiourea above and below the ferroelectric transition
;
loop_
_citation_id
_citation_journal_full
_citation_year
_citation_journal_volume
_citation_page_first
_citation_page_last
_citation_journal_id_ASTM
primary

;
Acta Crystallographica, Section A: Crystal Physics, Diffraction, Theoretical
and General Crystallography
; 1968 24 410 420 ACACBN
loop_
_citation_author_citation_id
_citation_author_name
primary 'Elcombe, Margaret M.'
primary 'Taylor,  J.C.'
_cell_length_a 7.655(7)
_cell_length_b 8.537(7)
_cell_length_c 5.520(7)
_cell_angle_alpha 90.
_cell_angle_beta 90.
_cell_angle_gamma 90.
_cell_volume 360.74
_cell_formula_units_Z 4
_space_group_name_H-M_alt 'P n m a'
_space_group_IT_number 62
loop_
_space_group_symop_id
_space_group_symop_operation_xyz
1 'x+1/2, y, -z+1/2'
2 'x, -y+1/2, z'
3 '-x+1/2, y+1/2, z+1/2'
4 '-x, -y, -z'
5 '-x+1/2, -y, z+1/2'
6 '-x, y+1/2, -z'
7 'x+1/2, -y+1/2, -z+1/2'
8 'x, y, z'
loop_
_atom_type_symbol
_atom_type_oxidation_number
S2- -2
C4+ 4
N3- -3
D1+ 1
loop_
_atom_site_label
_atom_site_type_symbol
_atom_site_symmetry_multiplicity
_atom_site_Wyckoff_symbol
_atom_site_fract_x
_atom_site_fract_y
_atom_site_fract_z
_atom_site_B_iso_or_equiv
_atom_site_occupancy
S1 S2- 4 c -0.0061(10) 0.25 0.1144(11) . 1.
C1 C4+ 4 c 0.0911(4) 0.25 -0.1628(5) . 1.
N1 N3- 8 d 0.1305(2) 0.3830(2) -0.2755(4) . 1.
D1 D1+ 8 d 0.1870(6) 0.3797(4) -0.4386(7) . 1.
D2 D1+ 8 d 0.0930(4) 0.4866(3) -0.2046(5) . 1.
loop_
_atom_site_aniso_label
_atom_site_aniso_type_symbol
_atom_site_aniso_beta_11
_atom_site_aniso_beta_22
_atom_site_aniso_beta_33
_atom_site_aniso_beta_12
_atom_site_aniso_beta_13
_atom_site_aniso_beta_23
S1 S2- 0.0244(14) 0.0122(9) 0.0239(19) 0. 0.0006(14) 0.
C1 C4+ 0.0165(5) 0.0122(4) 0.0340(10) 0. 0.0043(6) 0.
N1 N3- 0.0328(4) 0.0137(3) 0.0497(8) -0.0008(3) 0.0178(5) 0.0024(4)
D1 D1+ 0.0611(12) 0.0168(5) 0.0668(14) -0.0016(7) 0.0412(12) 0.0034(7)
D2 D1+ 0.0325(7) 0.0116(4) 0.0503(13) -0.0004(4) 0.0116(7) -0.0007(5)
#End of TTdata_117438-ICSD